(declare-fun var0 () String)
(assert (str.in.re var0 (re.++ (re.+ (re.union (str.to.re "++") (str.to.re ",,,"))) (re.++ (re.union (re.+ (str.to.re ")")) (re.* (str.to.re "*"))) (re.++ (re.* (re.union (str.to.re "''") (str.to.re "((("))) (re.++ (re.* (re.+ (str.to.re "&&&"))) (re.++ (re.+ (re.* (str.to.re "%%"))) (re.++ (re.* (re.union (str.to.re "#") (str.to.re "$$$"))) (re.++ (re.+ (re.* (str.to.re """"))) (re.++ (re.union (re.+ (str.to.re "YYY")) (re.union (str.to.re "Z") (str.to.re "!"))) (re.++ (re.+ (re.union (str.to.re "WW") (str.to.re "XX"))) (re.++ (re.union (re.* (str.to.re "U")) (re.* (str.to.re "V"))) (re.++ (re.union (re.+ (str.to.re "SS")) (re.* (str.to.re "T"))) (re.++ (re.+ (re.+ (str.to.re "RR"))) (re.++ (re.+ (re.union (str.to.re "PP") (str.to.re "QQ"))) (re.++ (re.* (re.union (str.to.re "NNN") (str.to.re "OOO"))) (re.++ (re.* (re.union (str.to.re "L") (str.to.re "M"))) (re.++ (re.union (re.union (str.to.re "III") (str.to.re "JJJ")) (re.+ (str.to.re "KK"))) (re.++ (re.* (re.+ (str.to.re "HH"))) (re.++ (re.union (re.* (str.to.re "E")) (re.union (str.to.re "FF") (str.to.re "GG"))) (re.++ (re.* (re.union (str.to.re "C") (str.to.re "D"))) (re.++ (re.* (re.+ (str.to.re "B"))) (re.++ (re.* (re.+ (str.to.re "A"))) (re.++ (re.+ (re.union (str.to.re "yy") (str.to.re "zzz"))) (re.++ (re.union (re.+ (str.to.re "w")) (re.+ (str.to.re "x"))) (re.++ (re.+ (re.+ (str.to.re "vv"))) (re.++ (re.union (re.+ (str.to.re "t")) (re.+ (str.to.re "uu"))) (re.++ (re.+ (re.+ (str.to.re "s"))) (re.++ (re.+ (re.union (str.to.re "qqq") (str.to.re "r"))) (re.++ (re.* (re.+ (str.to.re "pp"))) (re.++ (re.union (re.+ (str.to.re "nn")) (re.* (str.to.re "o"))) (re.++ (re.+ (re.+ (str.to.re "mm"))) (re.++ (re.+ (re.* (str.to.re "l"))) (re.++ (re.* (re.* (str.to.re "k"))) (re.++ (re.+ (re.+ (str.to.re "jjj"))) (re.++ (re.* (re.union (str.to.re "hh") (str.to.re "iii"))) (re.++ (re.* (re.+ (str.to.re "g"))) (re.++ (re.* (re.* (str.to.re "fff"))) (re.++ (re.+ (re.* (str.to.re "eee"))) (re.++ (re.* (re.* (str.to.re "dd"))) (re.++ (re.* (re.union (str.to.re "b") (str.to.re "c"))) (re.++ (re.+ (re.+ (str.to.re "aa"))) (re.++ (re.* (re.+ (str.to.re "9"))) (re.++ (re.* (re.* (str.to.re "88"))) (re.++ (re.+ (re.* (str.to.re "7"))) (re.++ (re.union (re.+ (str.to.re "5")) (re.+ (str.to.re "66"))) (re.++ (re.* (re.+ (str.to.re "444"))) (re.++ (re.union (re.+ (str.to.re "11")) (re.union (str.to.re "22") (str.to.re "3"))) (re.* (re.* (str.to.re "000")))))))))))))))))))))))))))))))))))))))))))))))))))
(check-sat)